\* tiles *\
Maximize
OBJ: N_0_1 + N_0_2 + N_1_2 + N_1_3
Subject To
PACK_0_0: ASS_0_0_0 + ASS_0_0_1 + ASS_0_0_2 + ASS_0_0_3 <= 1
PACK_0_1: ASS_0_1_0 + ASS_0_1_1 + ASS_0_1_2 + ASS_0_1_3 <= 1
PACK_0_2: ASS_0_2_0 + ASS_0_2_1 + ASS_0_2_2 + ASS_0_2_3 <= 1
PACK_1_0: ASS_1_0_0 + ASS_1_0_1 + ASS_1_0_2 + ASS_1_0_3 <= 1
PACK_1_1: ASS_1_1_0 + ASS_1_1_1 + ASS_1_1_2 + ASS_1_1_3 <= 1
PACK_1_2: ASS_1_2_0 + ASS_1_2_1 + ASS_1_2_2 + ASS_1_2_3 <= 1
PACK_2_0: ASS_2_0_0 + ASS_2_0_1 + ASS_2_0_2 + ASS_2_0_3 <= 1
PACK_2_1: ASS_2_1_0 + ASS_2_1_1 + ASS_2_1_2 + ASS_2_1_3 <= 1
PACK_2_2: ASS_2_2_0 + ASS_2_2_1 + ASS_2_2_2 + ASS_2_2_3 <= 1
PARTITION_0: ASS_0_0_0 + ASS_0_1_0 + ASS_0_2_0 + ASS_1_0_0 + ASS_1_1_0
 + ASS_1_2_0 + ASS_2_0_0 + ASS_2_1_0 + ASS_2_2_0 = 1
PARTITION_1: ASS_0_0_1 + ASS_0_1_1 + ASS_0_2_1 + ASS_1_0_1 + ASS_1_1_1
 + ASS_1_2_1 + ASS_2_0_1 + ASS_2_1_1 + ASS_2_2_1 = 1
PARTITION_2: ASS_0_0_2 + ASS_0_1_2 + ASS_0_2_2 + ASS_1_0_2 + ASS_1_1_2
 + ASS_1_2_2 + ASS_2_0_2 + ASS_2_1_2 + ASS_2_2_2 = 1
PARTITION_3: ASS_0_0_3 + ASS_0_1_3 + ASS_0_2_3 + ASS_1_0_3 + ASS_1_1_3
 + ASS_1_2_3 + ASS_2_0_3 + ASS_2_1_3 + ASS_2_2_3 = 1
REL_N_0_1: N_0_1 - N_0_1_0_0 - N_0_1_0_1 - N_0_1_0_2 - N_0_1_1_0 - N_0_1_1_1
 - N_0_1_1_2 - N_0_1_2_0 - N_0_1_2_1 - N_0_1_2_2 <= 0
REL_N_0_2: N_0_2 - N_0_2_0_0 - N_0_2_0_1 - N_0_2_0_2 - N_0_2_1_0 - N_0_2_1_1
 - N_0_2_1_2 - N_0_2_2_0 - N_0_2_2_1 - N_0_2_2_2 <= 0
REL_N_1_2: N_1_2 - N_1_2_0_0 - N_1_2_0_1 - N_1_2_0_2 - N_1_2_1_0 - N_1_2_1_1
 - N_1_2_1_2 - N_1_2_2_0 - N_1_2_2_1 - N_1_2_2_2 <= 0
REL_N_1_3: N_1_3 - N_1_3_0_0 - N_1_3_0_1 - N_1_3_0_2 - N_1_3_1_0 - N_1_3_1_1
 - N_1_3_1_2 - N_1_3_2_0 - N_1_3_2_1 - N_1_3_2_2 <= 0
REL_R1_0_1_0_0: - ASS_0_0_0 + N_0_1_0_0 <= 0
REL_R1_0_1_0_1: - ASS_0_1_0 + N_0_1_0_1 <= 0
REL_R1_0_1_0_2: - ASS_0_2_0 + N_0_1_0_2 <= 0
REL_R1_0_1_1_0: - ASS_1_0_0 + N_0_1_1_0 <= 0
REL_R1_0_1_1_1: - ASS_1_1_0 + N_0_1_1_1 <= 0
REL_R1_0_1_1_2: - ASS_1_2_0 + N_0_1_1_2 <= 0
REL_R1_0_1_2_0: - ASS_2_0_0 + N_0_1_2_0 <= 0
REL_R1_0_1_2_1: - ASS_2_1_0 + N_0_1_2_1 <= 0
REL_R1_0_1_2_2: - ASS_2_2_0 + N_0_1_2_2 <= 0
REL_R1_0_2_0_0: - ASS_0_0_0 + N_0_2_0_0 <= 0
REL_R1_0_2_0_1: - ASS_0_1_0 + N_0_2_0_1 <= 0
REL_R1_0_2_0_2: - ASS_0_2_0 + N_0_2_0_2 <= 0
REL_R1_0_2_1_0: - ASS_1_0_0 + N_0_2_1_0 <= 0
REL_R1_0_2_1_1: - ASS_1_1_0 + N_0_2_1_1 <= 0
REL_R1_0_2_1_2: - ASS_1_2_0 + N_0_2_1_2 <= 0
REL_R1_0_2_2_0: - ASS_2_0_0 + N_0_2_2_0 <= 0
REL_R1_0_2_2_1: - ASS_2_1_0 + N_0_2_2_1 <= 0
REL_R1_0_2_2_2: - ASS_2_2_0 + N_0_2_2_2 <= 0
REL_R1_1_2_0_0: - ASS_0_0_1 + N_1_2_0_0 <= 0
REL_R1_1_2_0_1: - ASS_0_1_1 + N_1_2_0_1 <= 0
REL_R1_1_2_0_2: - ASS_0_2_1 + N_1_2_0_2 <= 0
REL_R1_1_2_1_0: - ASS_1_0_1 + N_1_2_1_0 <= 0
REL_R1_1_2_1_1: - ASS_1_1_1 + N_1_2_1_1 <= 0
REL_R1_1_2_1_2: - ASS_1_2_1 + N_1_2_1_2 <= 0
REL_R1_1_2_2_0: - ASS_2_0_1 + N_1_2_2_0 <= 0
REL_R1_1_2_2_1: - ASS_2_1_1 + N_1_2_2_1 <= 0
REL_R1_1_2_2_2: - ASS_2_2_1 + N_1_2_2_2 <= 0
REL_R1_1_3_0_0: - ASS_0_0_1 + N_1_3_0_0 <= 0
REL_R1_1_3_0_1: - ASS_0_1_1 + N_1_3_0_1 <= 0
REL_R1_1_3_0_2: - ASS_0_2_1 + N_1_3_0_2 <= 0
REL_R1_1_3_1_0: - ASS_1_0_1 + N_1_3_1_0 <= 0
REL_R1_1_3_1_1: - ASS_1_1_1 + N_1_3_1_1 <= 0
REL_R1_1_3_1_2: - ASS_1_2_1 + N_1_3_1_2 <= 0
REL_R1_1_3_2_0: - ASS_2_0_1 + N_1_3_2_0 <= 0
REL_R1_1_3_2_1: - ASS_2_1_1 + N_1_3_2_1 <= 0
REL_R1_1_3_2_2: - ASS_2_2_1 + N_1_3_2_2 <= 0
REL_R2_0_1_0_0: - ASS_0_1_1 - ASS_1_0_1 + N_0_1_0_0 <= 0
REL_R2_0_1_0_1: - ASS_0_0_1 - ASS_0_2_1 - ASS_1_1_1 + N_0_1_0_1 <= 0
REL_R2_0_1_0_2: - ASS_0_1_1 - ASS_1_2_1 + N_0_1_0_2 <= 0
REL_R2_0_1_1_0: - ASS_0_0_1 - ASS_1_1_1 - ASS_2_0_1 + N_0_1_1_0 <= 0
REL_R2_0_1_1_1: - ASS_0_1_1 - ASS_1_0_1 - ASS_1_2_1 - ASS_2_1_1 + N_0_1_1_1
 <= 0
REL_R2_0_1_1_2: - ASS_0_2_1 - ASS_1_1_1 - ASS_2_2_1 + N_0_1_1_2 <= 0
REL_R2_0_1_2_0: - ASS_1_0_1 - ASS_2_1_1 + N_0_1_2_0 <= 0
REL_R2_0_1_2_1: - ASS_1_1_1 - ASS_2_0_1 - ASS_2_2_1 + N_0_1_2_1 <= 0
REL_R2_0_1_2_2: - ASS_1_2_1 - ASS_2_1_1 + N_0_1_2_2 <= 0
REL_R2_0_2_0_0: - ASS_0_1_2 - ASS_1_0_2 + N_0_2_0_0 <= 0
REL_R2_0_2_0_1: - ASS_0_0_2 - ASS_0_2_2 - ASS_1_1_2 + N_0_2_0_1 <= 0
REL_R2_0_2_0_2: - ASS_0_1_2 - ASS_1_2_2 + N_0_2_0_2 <= 0
REL_R2_0_2_1_0: - ASS_0_0_2 - ASS_1_1_2 - ASS_2_0_2 + N_0_2_1_0 <= 0
REL_R2_0_2_1_1: - ASS_0_1_2 - ASS_1_0_2 - ASS_1_2_2 - ASS_2_1_2 + N_0_2_1_1
 <= 0
REL_R2_0_2_1_2: - ASS_0_2_2 - ASS_1_1_2 - ASS_2_2_2 + N_0_2_1_2 <= 0
REL_R2_0_2_2_0: - ASS_1_0_2 - ASS_2_1_2 + N_0_2_2_0 <= 0
REL_R2_0_2_2_1: - ASS_1_1_2 - ASS_2_0_2 - ASS_2_2_2 + N_0_2_2_1 <= 0
REL_R2_0_2_2_2: - ASS_1_2_2 - ASS_2_1_2 + N_0_2_2_2 <= 0
REL_R2_1_2_0_0: - ASS_0_1_2 - ASS_1_0_2 + N_1_2_0_0 <= 0
REL_R2_1_2_0_1: - ASS_0_0_2 - ASS_0_2_2 - ASS_1_1_2 + N_1_2_0_1 <= 0
REL_R2_1_2_0_2: - ASS_0_1_2 - ASS_1_2_2 + N_1_2_0_2 <= 0
REL_R2_1_2_1_0: - ASS_0_0_2 - ASS_1_1_2 - ASS_2_0_2 + N_1_2_1_0 <= 0
REL_R2_1_2_1_1: - ASS_0_1_2 - ASS_1_0_2 - ASS_1_2_2 - ASS_2_1_2 + N_1_2_1_1
 <= 0
REL_R2_1_2_1_2: - ASS_0_2_2 - ASS_1_1_2 - ASS_2_2_2 + N_1_2_1_2 <= 0
REL_R2_1_2_2_0: - ASS_1_0_2 - ASS_2_1_2 + N_1_2_2_0 <= 0
REL_R2_1_2_2_1: - ASS_1_1_2 - ASS_2_0_2 - ASS_2_2_2 + N_1_2_2_1 <= 0
REL_R2_1_2_2_2: - ASS_1_2_2 - ASS_2_1_2 + N_1_2_2_2 <= 0
REL_R2_1_3_0_0: - ASS_0_1_3 - ASS_1_0_3 + N_1_3_0_0 <= 0
REL_R2_1_3_0_1: - ASS_0_0_3 - ASS_0_2_3 - ASS_1_1_3 + N_1_3_0_1 <= 0
REL_R2_1_3_0_2: - ASS_0_1_3 - ASS_1_2_3 + N_1_3_0_2 <= 0
REL_R2_1_3_1_0: - ASS_0_0_3 - ASS_1_1_3 - ASS_2_0_3 + N_1_3_1_0 <= 0
REL_R2_1_3_1_1: - ASS_0_1_3 - ASS_1_0_3 - ASS_1_2_3 - ASS_2_1_3 + N_1_3_1_1
 <= 0
REL_R2_1_3_1_2: - ASS_0_2_3 - ASS_1_1_3 - ASS_2_2_3 + N_1_3_1_2 <= 0
REL_R2_1_3_2_0: - ASS_1_0_3 - ASS_2_1_3 + N_1_3_2_0 <= 0
REL_R2_1_3_2_1: - ASS_1_1_3 - ASS_2_0_3 - ASS_2_2_3 + N_1_3_2_1 <= 0
REL_R2_1_3_2_2: - ASS_1_2_3 - ASS_2_1_3 + N_1_3_2_2 <= 0
Binaries
ASS_0_0_0
ASS_0_0_1
ASS_0_0_2
ASS_0_0_3
ASS_0_1_0
ASS_0_1_1
ASS_0_1_2
ASS_0_1_3
ASS_0_2_0
ASS_0_2_1
ASS_0_2_2
ASS_0_2_3
ASS_1_0_0
ASS_1_0_1
ASS_1_0_2
ASS_1_0_3
ASS_1_1_0
ASS_1_1_1
ASS_1_1_2
ASS_1_1_3
ASS_1_2_0
ASS_1_2_1
ASS_1_2_2
ASS_1_2_3
ASS_2_0_0
ASS_2_0_1
ASS_2_0_2
ASS_2_0_3
ASS_2_1_0
ASS_2_1_1
ASS_2_1_2
ASS_2_1_3
ASS_2_2_0
ASS_2_2_1
ASS_2_2_2
ASS_2_2_3
N_0_1
N_0_1_0_0
N_0_1_0_1
N_0_1_0_2
N_0_1_1_0
N_0_1_1_1
N_0_1_1_2
N_0_1_2_0
N_0_1_2_1
N_0_1_2_2
N_0_2
N_0_2_0_0
N_0_2_0_1
N_0_2_0_2
N_0_2_1_0
N_0_2_1_1
N_0_2_1_2
N_0_2_2_0
N_0_2_2_1
N_0_2_2_2
N_1_2
N_1_2_0_0
N_1_2_0_1
N_1_2_0_2
N_1_2_1_0
N_1_2_1_1
N_1_2_1_2
N_1_2_2_0
N_1_2_2_1
N_1_2_2_2
N_1_3
N_1_3_0_0
N_1_3_0_1
N_1_3_0_2
N_1_3_1_0
N_1_3_1_1
N_1_3_1_2
N_1_3_2_0
N_1_3_2_1
N_1_3_2_2
End
